nN = 5;
nR = 30;
nH = 1;

a = [[19, 23, 11, 24, 19, 18, 24, 19, 25, 21, 17, 22, 25, 16, 19, 21, 17, 14, 13, 22, 11, 16, 23, 14, 24, 11, 22, 17, 21, 11], [11, 18, 19, 19, 13, 15, 12, 21, 13, 19, 16, 19, 21, 21, 21, 19, 17, 20, 13, 18, 13, 15, 14, 19, 18, 12, 24, 13, 19, 21], [13, 21, 22, 22, 25, 17, 14, 18, 16, 17, 18, 20, 23, 14, 21, 17, 18, 24, 19, 11, 12, 24, 25, 23, 22, 24, 12, 19, 13, 23], [17, 15, 16, 14, 19, 20, 15, 16, 18, 23, 20, 24, 12, 19, 13, 19, 20, 20, 24, 23, 21, 13, 14, 16, 14, 18, 16, 13, 21, 15], [22, 21, 11, 11, 22, 24, 24, 15, 23, 19, 23, 12, 20, 16, 22, 22, 21, 19, 18, 18, 12, 10, 12, 11, 19, 17, 13, 23, 22, 19]];
c = [[[0, 0, 0, 0, 0, 0, 0, 0, 0, 0, 0, 0, 0, 0, 0, 0, 0, 0, 0, 0, 0, 0, 0, 0, 0, 0, 0, 0, 0, 0], [31, 49, 36, 35, 45, 35, 40, 41, 38, 36, 37, 39, 41, 36, 39, 47, 30, 43, 32, 40, 45, 31, 30, 50, 49, 40, 50, 45, 43, 37], [37, 43, 49, 41, 41, 39, 38, 40, 50, 49, 39, 46, 43, 50, 46, 47, 39, 30, 46, 46, 33, 36, 47, 50, 48, 45, 33, 45, 43, 39], [42, 31, 42, 47, 40, 42, 43, 50, 33, 34, 39, 33, 45, 34, 33, 34, 32, 40, 32, 34, 36, 38, 48, 41, 30, 31, 46, 31, 40, 39], [39, 42, 44, 49, 31, 37, 36, 30, 46, 49, 33, 35, 40, 40, 34, 31, 40, 40, 47, 34, 32, 44, 46, 33, 30, 31, 41, 43, 41, 36]], [[0, 0, 0, 0, 0, 0, 0, 0, 0, 0, 0, 0, 0, 0, 0, 0, 0, 0, 0, 0, 0, 0, 0, 0, 0, 0, 0, 0, 0, 0], [0, 0, 0, 0, 0, 0, 0, 0, 0, 0, 0, 0, 0, 0, 0, 0, 0, 0, 0, 0, 0, 0, 0, 0, 0, 0, 0, 0, 0, 0], [33, 35, 31, 39, 49, 41, 47, 38, 42, 36, 49, 46, 46, 44, 50, 50, 34, 32, 44, 34, 47, 42, 45, 34, 50, 41, 35, 43, 50, 31], [32, 43, 38, 37, 37, 42, 30, 38, 42, 50, 30, 47, 46, 35, 44, 44, 34, 31, 43, 39, 34, 46, 34, 39, 43, 39, 46, 44, 33, 33], [48, 33, 30, 34, 32, 30, 46, 39, 38, 38, 50, 39, 38, 34, 40, 40, 44, 30, 39, 32, 50, 37, 47, 39, 47, 31, 38, 49, 37, 31]], [[0, 0, 0, 0, 0, 0, 0, 0, 0, 0, 0, 0, 0, 0, 0, 0, 0, 0, 0, 0, 0, 0, 0, 0, 0, 0, 0, 0, 0, 0], [0, 0, 0, 0, 0, 0, 0, 0, 0, 0, 0, 0, 0, 0, 0, 0, 0, 0, 0, 0, 0, 0, 0, 0, 0, 0, 0, 0, 0, 0], [0, 0, 0, 0, 0, 0, 0, 0, 0, 0, 0, 0, 0, 0, 0, 0, 0, 0, 0, 0, 0, 0, 0, 0, 0, 0, 0, 0, 0, 0], [39, 43, 38, 50, 36, 32, 32, 30, 35, 43, 41, 30, 36, 40, 39, 50, 37, 40, 45, 49, 40, 45, 50, 38, 43, 42, 45, 36, 46, 46], [43, 30, 49, 36, 40, 42, 43, 42, 44, 38, 33, 42, 39, 30, 38, 37, 50, 30, 32, 47, 49, 32, 33, 44, 46, 39, 33, 48, 40, 30]], [[0, 0, 0, 0, 0, 0, 0, 0, 0, 0, 0, 0, 0, 0, 0, 0, 0, 0, 0, 0, 0, 0, 0, 0, 0, 0, 0, 0, 0, 0], [0, 0, 0, 0, 0, 0, 0, 0, 0, 0, 0, 0, 0, 0, 0, 0, 0, 0, 0, 0, 0, 0, 0, 0, 0, 0, 0, 0, 0, 0], [0, 0, 0, 0, 0, 0, 0, 0, 0, 0, 0, 0, 0, 0, 0, 0, 0, 0, 0, 0, 0, 0, 0, 0, 0, 0, 0, 0, 0, 0], [0, 0, 0, 0, 0, 0, 0, 0, 0, 0, 0, 0, 0, 0, 0, 0, 0, 0, 0, 0, 0, 0, 0, 0, 0, 0, 0, 0, 0, 0], [49, 49, 48, 50, 41, 46, 39, 39, 31, 44, 40, 50, 35, 49, 45, 41, 37, 44, 36, 45, 44, 42, 34, 32, 37, 38, 49, 46, 31, 47]], [[0, 0, 0, 0, 0, 0, 0, 0, 0, 0, 0, 0, 0, 0, 0, 0, 0, 0, 0, 0, 0, 0, 0, 0, 0, 0, 0, 0, 0, 0], [0, 0, 0, 0, 0, 0, 0, 0, 0, 0, 0, 0, 0, 0, 0, 0, 0, 0, 0, 0, 0, 0, 0, 0, 0, 0, 0, 0, 0, 0], [0, 0, 0, 0, 0, 0, 0, 0, 0, 0, 0, 0, 0, 0, 0, 0, 0, 0, 0, 0, 0, 0, 0, 0, 0, 0, 0, 0, 0, 0], [0, 0, 0, 0, 0, 0, 0, 0, 0, 0, 0, 0, 0, 0, 0, 0, 0, 0, 0, 0, 0, 0, 0, 0, 0, 0, 0, 0, 0, 0], [0, 0, 0, 0, 0, 0, 0, 0, 0, 0, 0, 0, 0, 0, 0, 0, 0, 0, 0, 0, 0, 0, 0, 0, 0, 0, 0, 0, 0, 0]]];

q = [[[14], [18], [6], [11], [14], [7], [24], [19], [8], [16], [22], [9], [12], [16], [14], [14], [17], [22], [6], [13], [14], [14], [24], [18], [18], [12], [24], [23], [10], [7]], [[21], [13], [18], [10], [16], [24], [18], [11], [17], [24], [16], [22], [9], [10], [24], [12], [24], [9], [5], [24], [16], [19], [11], [15], [10], [12], [25], [18], [8], [11]], [[13], [22], [20], [24], [19], [20], [17], [6], [23], [10], [6], [16], [24], [6], [5], [12], [16], [7], [11], [8], [21], [9], [17], [13], [23], [15], [20], [9], [14], [14]], [[7], [15], [11], [21], [18], [12], [7], [22], [9], [23], [21], [8], [18], [23], [20], [12], [5], [12], [5], [10], [12], [20], [18], [17], [11], [11], [18], [20], [24], [24]], [[10], [15], [17], [20], [17], [11], [22], [19], [24], [24], [17], [20], [16], [10], [6], [11], [9], [14], [14], [22], [17], [16], [19], [21], [24], [22], [18], [8], [5], [14]]];
Q = [[72], [75], [70], [72], [78]];
